10J3M/DAT/10J3MUNR-18.dat
10 3
35.367 30.831
22.1765 43.0398
34.8822 5.9976
43.6815 45.309
24.4556 44.0101
13.1652 43.3766
17.5235 17.4434
40.4212 44.8537
28.1072 1.0507
31.7278 1.6113
277.5232