10J3M/SOL/10J3MUNR-18.sol
solution status: optimal solution found
objective value:                     97.1692333333333
x#1#2                                               1 	(obj:0)
x#2#1                                               1 	(obj:0)
x#3#3                                               1 	(obj:0)
x#4#2                               0.300407876713635 	(obj:0)
x#4#3                               0.699592123286364 	(obj:0)
x#5#1                                               1 	(obj:0)
x#6#1                                               1 	(obj:0)
x#7#1                                               1 	(obj:0)
x#8#2                                               1 	(obj:0)
x#9#1                               0.706169000588224 	(obj:0)
x#9#2                               0.293830999411776 	(obj:0)
x#10#3                                              1 	(obj:0)
z                                    97.1692333333333 	(obj:1)
